n_res = 4;
rcap = [27, 22, 27, 20];
rtype = [1, 1, 2, 2];
n_tasks = 14;
modes = [ {1, 2, 3}, {4, 5, 6}, {7, 8, 9}, {10, 11, 12}, {13, 14, 15}, {16, 17, 18}, {19, 20, 21}, {22, 23, 24}, {25, 26, 27}, {28, 29, 30}, {31, 32, 33}, {34, 35, 36}, {37, 38, 39}, {40, 41, 42} ];
succ = [ {6, 7, 13}, {4, 6}, {6, 7, 10}, {5, 7, 10}, {9, 13, 14}, {8, 14}, {12, 14}, {9}, {11}, {12, 13}, {12}, {}, {}, {} ];
n_opt = 42;
dur = [3, 8, 9, 5, 9, 10, 5, 6, 6, 3, 4, 8, 7, 7, 8, 3, 8, 10, 4, 8, 9, 2, 6, 9, 1, 2, 6, 6, 7, 8, 1, 3, 5, 3, 4, 5, 7, 8, 9, 3, 3, 10];
rreq = [|  7,  6,  0, 10,  0,  8, 10,  4,  5,  2,  2,  2,  0,  0,  0,  0,  0,  1,  0,  5,  0,  0,  6,  0,  1,  0,  0,  5,  0,  0,  0,  6,  0,  7,  0,  0,  6,  0,  0,  0,  9,  0
        |  0,  0,  5,  0,  5,  0,  0,  0,  0,  0,  0,  0,  6,  6,  6,  9,  7,  0,  5,  0,  5,  5,  0,  4,  0,  6,  6,  0,  6,  2,  5,  0,  5,  0,  6,  5,  0,  4,  1,  6,  0,  6
        |  4,  3,  3,  0,  9,  0,  5,  3,  0,  0,  0,  0,  4,  0,  0, 10,  0,  0,  0,  8,  0,  9,  7,  4, 10,  0,  1,  0,  9,  2,  7,  0,  0,  8,  5,  0,  0,  0,  0,  3,  0,  0
        |  0,  0,  0,  2,  0,  2,  0,  0,  7,  6,  5,  4,  0,  7,  4,  0,  2,  1,  6,  0,  4,  0,  0,  0,  0,  4,  0, 10,  0,  0,  0,  5,  3,  0,  0,  8,  1,  1,  1,  0,  8,  5 |];
